************************************************************************
file with basedata            : n/a
initial value random generator: n/a
************************************************************************
projects                      :  1
jobs (incl. supersource/sink ):  32
horizon                       :  196
RESOURCES
  - renewable                 :  4   R
  - nonrenewable              :  0   N
  - doubly constrained        :  0   D
************************************************************************
PROJECT INFORMATION:
pronr.  #jobs rel.date duedate tardcost  MPM-Time
    1     30      0       54       18       54
************************************************************************
PRECEDENCE RELATIONS:
jobnr.    #modes  #successors   successors
   1        1          3           2   3   4
   2        1          3           5   6  10
   3        1          3           6   7   8
   4        1          3           5  14  15
   5        1          3           7  12  18
   6        1          3           9  11  12
   7        1          3          21  25  31
   8        1          3           9  19  28
   9        1          3          14  16  17
  10        1          2          13  30
  11        1          3          13  15  21
  12        1          3          16  21  22
  13        1          2          19  20
  14        1          3          20  22  23
  15        1          3          16  24  25
  16        1          3          20  23  27
  17        1          1          22
  18        1          3          19  24  25
  19        1          2          23  31
  20        1          2          29  31
  21        1          2          24  26
  22        1          1          27
  23        1          1          29
  24        1          3          27  28  29
  25        1          1          26
  26        1          1          28
  27        1          1          30
  28        1          1          30
  29        1          1          32
  30        1          1          32
  31        1          1          32
  32        1          0        
************************************************************************
REQUESTS/DURATIONS:
jobnr. mode duration  R 1  R 2  R 3  R 4
------------------------------------------------------------------------
  1      1     0    
  2      1     2       3   3
                       2   2
                       6   6
                       6   6
  3      1    10       3   3   3   3   3   3   3   3   3   0
                       8   8   8   8   8   8   8   8   8   0
                      10  10  10  10  10  10  10  10  10   0
                       4   4   4   4   4   4   4   4   4   0
  4      1     8      10  10  10  10  10  10  10  10
                       9   9   9   9   9   9   9   9
                       7   7   7   7   7   7   7   7
                       7   7   7   7   7   7   7   7
  5      1     3       8   8   8
                       1   1   1
                      10  10  10
                       1   1   1
  6      1    10       6   6   6   6   6   6   6   6   0   6
                       8   8   8   8   8   8   8   8   0   8
                       0   0   0   0   0   0   0   0   0   0
                       0   0   0   0   0   0   0   0   0   0
  7      1     8       3   3   3   3   3   3   3   3
                       7   7   7   7   7   7   7   7
                      10  10  10  10  10  10  10  10
                       2   2   2   2   2   2   2   2
  8      1     6       4   4   4   4   4   4
                       0   0   0   0   0   0
                       4   4   4   4   4   4
                       0   0   0   0   0   0
  9      1    10       0   0   0   0   0   0   0   0   0   0
                       6   6   6   6   0   6   6   6   6   6
                       2   2   2   2   0   2   2   2   2   2
                      10  10  10  10   0  10  10  10  10  10
 10      1     9       4   4   4   4   4   4   4   4   0
                       4   4   4   4   4   4   4   4   0
                       0   0   0   0   0   0   0   0   0
                       0   0   0   0   0   0   0   0   0
 11      1     4       9   9   9   9
                       3   3   3   3
                       5   5   5   5
                       7   7   7   7
 12      1     9       0   0   0   0   0   0   0   0   0
                       9   0   9   9   9   9   9   9   9
                       6   0   6   6   6   6   6   6   6
                       0   0   0   0   0   0   0   0   0
 13      1     7       7   7   7   7   7   7   7
                       9   9   9   9   9   9   9
                       6   6   6   6   6   6   6
                       0   0   0   0   0   0   0
 14      1     5       4   4   4   4   4
                       7   7   7   7   7
                       8   8   8   8   8
                       0   0   0   0   0
 15      1     2       9   9
                      10  10
                       6   6
                       6   6
 16      1     8       0   0   0   0   0   0   0   0
                       4   4   4   4   4   4   4   0
                       1   1   1   1   1   1   1   0
                       0   0   0   0   0   0   0   0
 17      1     6       2   2   2   2   2   2
                       0   0   0   0   0   0
                       0   0   0   0   0   0
                       0   0   0   0   0   0
 18      1     7       3   3   3   3   3   3   0
                       3   3   3   3   3   3   0
                       5   5   5   5   5   5   0
                      10  10  10  10  10  10   0
 19      1     7       3   0   3   3   3   3   3
                       6   0   6   6   6   6   6
                       0   0   0   0   0   0   0
                       0   0   0   0   0   0   0
 20      1     2       6   6
                       1   1
                      10  10
                       6   6
 21      1     6       9   9   9   9   9   9
                       6   6   6   6   6   6
                       0   0   0   0   0   0
                       0   0   0   0   0   0
 22      1     3       0   0   0
                       1   1   1
                       0   0   0
                       3   3   3
 23      1     8       1   1   1   1   1   0   1   1
                       0   0   0   0   0   0   0   0
                       6   6   6   6   6   0   6   6
                       6   6   6   6   6   0   6   6
 24      1     7       4   4   4   4   4   4   4
                       7   7   7   7   7   7   7
                       0   0   0   0   0   0   0
                       4   4   4   4   4   4   4
 25      1    10       5   5   5   5   5   5   5   5   5   5
                       6   6   6   6   6   6   6   6   6   6
                       8   8   8   8   8   8   8   8   8   8
                       0   0   0   0   0   0   0   0   0   0
 26      1     5       2   2   2   0   2
                       0   0   0   0   0
                       9   9   9   0   9
                       6   6   6   0   6
 27      1     8       7   7   7   7   7   7   7   7
                       5   5   5   5   5   5   5   5
                       9   9   9   9   9   9   9   9
                       2   2   2   2   2   2   2   2
 28      1    10       9   9   9   9   9   9   9   9   9   9
                       3   3   3   3   3   3   3   3   3   3
                       0   0   0   0   0   0   0   0   0   0
                       3   3   3   3   3   3   3   3   3   3
 29      1     5       2   2   2   2   2
                       3   3   3   3   3
                       5   5   5   5   5
                       8   8   8   8   8
 30      1     2      10  10
                       7   7
                       3   3
                       7   7
 31      1     9       0   0   0   0   0   0   0   0   0
                       6   6   6   6   6   6   6   0   6
                       0   0   0   0   0   0   0   0   0
                      10  10  10  10  10  10  10   0  10
 32      1     0    
************************************************************************
RESOURCEAVAILABILITIES:
  R 1  R 2  R 3  R 4

  27  27  27  27  27  27   0  27  27  27  27  27  27  27  27  27  27  27  27  27  27  27  27  27  27  27  27  27  27  27  27  27  27  27  27  27  27  27  27  27  27  27  27  27  27  27  27  27  27  27  27  27  27  27  27   0  27  27  27  27  27  27  27  27  27  27  27  27  27  27  27  27  27  27   0  27  27   0  27   0  27  27  27  27  27  27  27  27  27  27  27  27  27   0  27  27  27  27  27  27   0  27  27  27  27  27   0  27  27  27  27  27  27  27  27  27  27  27  27   0  27  27  27  27  27  27  27  27  27  27  27  27  27   0  27   0  27  27  27  27  27  27  27  27  27  27  27  27  27  27  27  27  27  27  27  27  27  27  27  27  27  27  27  27  27  27  27  27  27  27  27  27  27  27  27  27  27  27  27   0  27  27  27  27  27  27  27  27  27  27  27  27  27  27  27  27

  34  34  34  34  34  34   0  34  34  34  34  34  34  34  34  34  34  34  34  34  34  34  34  34  34  34  34  34  34  34  34  34  34  34  34  34  34  34  34  34  34  34  34  34  34  34  34  34  34  34  34  34  34  34  34   0  34  34  34  34  34  34  34  34  34  34  34  34  34  34  34  34  34  34   0  34  34   0  34   0  34  34  34  34  34  34  34  34  34  34  34  34  34   0  34  34  34  34  34  34   0  34  34  34  34  34   0  34  34  34  34  34  34  34  34  34  34  34  34   0  34  34  34  34  34  34  34  34  34  34  34  34  34   0  34   0  34  34  34  34  34  34  34  34  34  34  34  34  34  34  34  34  34  34  34  34  34  34  34  34  34  34  34  34  34  34  34  34  34  34  34  34  34  34  34  34  34  34  34   0  34  34  34  34  34  34  34  34  34  34  34  34  34  34  34  34

  25  25  25  25  25  25   0  25  25  25  25  25  25  25  25  25  25  25  25  25  25  25  25  25  25  25  25  25  25  25  25  25  25  25  25  25  25  25  25  25  25  25  25  25  25  25  25  25  25  25  25  25  25  25  25   0  25  25  25  25  25  25  25  25  25  25  25  25  25  25  25  25  25  25   0  25  25   0  25   0  25  25  25  25  25  25  25  25  25  25  25  25  25   0  25  25  25  25  25  25   0  25  25  25  25  25   0  25  25  25  25  25  25  25  25  25  25  25  25   0  25  25  25  25  25  25  25  25  25  25  25  25  25   0  25   0  25  25  25  25  25  25  25  25  25  25  25  25  25  25  25  25  25  25  25  25  25  25  25  25  25  25  25  25  25  25  25  25  25  25  25  25  25  25  25  25  25  25  25   0  25  25  25  25  25  25  25  25  25  25  25  25  25  25  25  25

  26  26  26  26  26  26   0  26  26  26  26  26  26  26  26  26  26  26  26  26  26  26  26  26  26  26  26  26  26  26  26  26  26  26  26  26  26  26  26  26  26  26  26  26  26  26  26  26  26  26  26  26  26  26  26   0  26  26  26  26  26  26  26  26  26  26  26  26  26  26  26  26  26  26   0  26  26   0  26   0  26  26  26  26  26  26  26  26  26  26  26  26  26   0  26  26  26  26  26  26   0  26  26  26  26  26   0  26  26  26  26  26  26  26  26  26  26  26  26   0  26  26  26  26  26  26  26  26  26  26  26  26  26   0  26   0  26  26  26  26  26  26  26  26  26  26  26  26  26  26  26  26  26  26  26  26  26  26  26  26  26  26  26  26  26  26  26  26  26  26  26  26  26  26  26  26  26  26  26   0  26  26  26  26  26  26  26  26  26  26  26  26  26  26  26  26

************************************************************************
